HUN,8,6,474
5,58,0,21,1,62,3,88,2,26,4,76
5,31,2,37,0,74,1,95,4,4,3,43
0,83,3,47,2,82,5,98,1,16,4,77
2,77,0,86,1,2,5,9,4,74,3,18
4,12,1,5,3,72,0,45,5,40,2,2
5,73,0,32,4,78,2,92,1,27,3,30
2,24,1,51,3,85,0,70,5,19,4,16
2,13,3,25,5,51,1,15,4,74,0,89
